nScooters 	= 6;
nEmployees 	= 3;
dummy 	= 4;
TravelTime 	= [|0, 85, 225, 336, 220, 151, 237, 382, 234, 297, 316, 194
|85, 0, 177, 313, 247, 105, 161, 308, 154, 220, 239, 189
|225, 177, 0, 152, 199, 75, 249, 373, 228, 291, 146, 108
|336, 313, 152, 0, 188, 210, 401, 519, 379, 440, 257, 146
|220, 247, 199, 188, 0, 185, 392, 536, 377, 447, 344, 92
|151, 105, 75, 210, 185, 0, 0, 0, 0, 0, 0, 0
|237, 161, 249, 401, 392, 0, 0, 0, 0, 0, 0, 0
|382, 308, 373, 519, 536, 0, 0, 0, 0, 0, 0, 0
|234, 154, 228, 379, 377, 0, 0, 0, 0, 0, 0, 0
|297, 220, 291, 440, 447, 0, 0, 0, 0, 0, 0, 0
|316, 239, 146, 257, 344, 0, 0, 0, 0, 0, 0, 0
|194, 189, 108, 146, 92, 0, 0, 0, 0, 0, 0, 0
|];
Priority = [24, 43, 41, 26, 15, 8];
Payment = [95, 82, 87, 95, 92, 87];
MinNumScooters = [3, 3, 3];
MaxNumScooters = [10, 9, 11];
MaxTime = [892, 891, 1046];
alpha = 7;
beta = 1;
gamma = 13;
